Minimize
  obj: x0 + x1 + x2 + x3 + x4

Subject To
  c0: x0 + x4 = 6
  c1: x0 + x2 = 9
  c2: x0 + x1 + x2 + x3 + x4 = 37
  c3: x1 + x4 = 17
  c4: x0 + x2 + x3 = 20
  c5: x1 + x2 + x4 = 26
  c6: x0 + x4 = 6

Bounds
  x0 >= 0
  x1 >= 0
  x2 >= 0
  x3 >= 0
  x4 >= 0

Generals
  x0 x1 x2 x3 x4

End
